100 4950
1 2 4
1 3 3
1 4 4
1 5 2
1 6 5
1 7 2
1 8 4
1 9 5
1 10 2
1 11 4
1 12 3
1 13 3
1 14 3
1 15 1
1 16 5
1 17 2
1 18 2
1 19 3
1 20 5
1 21 2
1 22 5
1 23 5
1 24 3
1 25 2
1 26 4
1 27 5
1 28 1
1 29 1
1 30 2
1 31 4
1 32 1
1 33 5
1 34 2
1 35 2
1 36 5
1 37 4
1 38 2
1 39 2
1 40 5
1 41 3
1 42 3
1 43 2
1 44 5
1 45 1
1 46 5
1 47 2
1 48 3
1 49 1
1 50 5
1 51 2
1 52 2
1 53 1
1 54 2
1 55 3
1 56 2
1 57 4
1 58 3
1 59 2
1 60 4
1 61 1
1 62 5
1 63 1
1 64 5
1 65 2
1 66 3
1 67 3
1 68 2
1 69 4
1 70 4
1 71 2
1 72 2
1 73 3
1 74 3
1 75 5
1 76 2
1 77 1
1 78 2
1 79 2
1 80 5
1 81 1
1 82 5
1 83 4
1 84 4
1 85 1
1 86 5
1 87 4
1 88 1
1 89 5
1 90 2
1 91 3
1 92 3
1 93 3
1 94 2
1 95 4
1 96 3
1 97 3
1 98 2
1 99 1
1 100 1
2 3 2
2 4 3
2 5 1
2 6 2
2 7 4
2 8 4
2 9 1
2 10 1
2 11 5
2 12 3
2 13 2
2 14 1
2 15 1
2 16 5
2 17 3
2 18 3
2 19 2
2 20 5
2 21 4
2 22 2
2 23 5
2 24 2
2 25 4
2 26 4
2 27 2
2 28 3
2 29 5
2 30 3
2 31 1
2 32 4
2 33 1
2 34 2
2 35 5
2 36 2
2 37 2
2 38 5
2 39 1
2 40 2
2 41 4
2 42 5
2 43 5
2 44 1
2 45 3
2 46 1
2 47 5
2 48 1
2 49 4
2 50 5
2 51 4
2 52 3
2 53 1
2 54 5
2 55 4
2 56 3
2 57 1
2 58 5
2 59 3
2 60 5
2 61 5
2 62 2
2 63 1
2 64 1
2 65 2
2 66 4
2 67 1
2 68 4
2 69 4
2 70 4
2 71 1
2 72 3
2 73 4
2 74 4
2 75 5
2 76 4
2 77 1
2 78 2
2 79 5
2 80 2
2 81 3
2 82 1
2 83 1
2 84 3
2 85 4
2 86 2
2 87 5
2 88 1
2 89 5
2 90 5
2 91 3
2 92 2
2 93 4
2 94 5
2 95 1
2 96 1
2 97 4
2 98 2
2 99 4
2 100 5
3 4 3
3 5 4
3 6 3
3 7 5
3 8 5
3 9 4
3 10 5
3 11 2
3 12 5
3 13 3
3 14 1
3 15 2
3 16 1
3 17 3
3 18 4
3 19 5
3 20 5
3 21 3
3 22 2
3 23 4
3 24 3
3 25 1
3 26 2
3 27 5
3 28 2
3 29 5
3 30 2
3 31 4
3 32 3
3 33 1
3 34 4
3 35 5
3 36 2
3 37 5
3 38 5
3 39 1
3 40 2
3 41 3
3 42 4
3 43 5
3 44 2
3 45 4
3 46 3
3 47 4
3 48 5
3 49 2
3 50 4
3 51 4
3 52 3
3 53 2
3 54 1
3 55 3
3 56 5
3 57 2
3 58 5
3 59 2
3 60 1
3 61 5
3 62 4
3 63 4
3 64 2
3 65 1
3 66 1
3 67 1
3 68 3
3 69 5
3 70 5
3 71 4
3 72 5
3 73 4
3 74 4
3 75 3
3 76 4
3 77 1
3 78 1
3 79 4
3 80 2
3 81 5
3 82 1
3 83 5
3 84 5
3 85 3
3 86 1
3 87 5
3 88 4
3 89 2
3 90 1
3 91 5
3 92 5
3 93 3
3 94 5
3 95 1
3 96 1
3 97 5
3 98 1
3 99 4
3 100 1
4 5 4
4 6 2
4 7 4
4 8 4
4 9 3
4 10 1
4 11 5
4 12 5
4 13 3
4 14 3
4 15 1
4 16 1
4 17 2
4 18 3
4 19 5
4 20 5
4 21 5
4 22 3
4 23 1
4 24 4
4 25 5
4 26 1
4 27 3
4 28 2
4 29 3
4 30 4
4 31 5
4 32 1
4 33 3
4 34 1
4 35 1
4 36 2
4 37 2
4 38 4
4 39 5
4 40 5
4 41 2
4 42 1
4 43 5
4 44 4
4 45 2
4 46 1
4 47 3
4 48 1
4 49 5
4 50 3
4 51 2
4 52 3
4 53 2
4 54 5
4 55 5
4 56 2
4 57 1
4 58 3
4 59 3
4 60 2
4 61 4
4 62 5
4 63 1
4 64 1
4 65 1
4 66 5
4 67 4
4 68 1
4 69 5
4 70 4
4 71 2
4 72 4
4 73 5
4 74 5
4 75 5
4 76 4
4 77 3
4 78 1
4 79 4
4 80 2
4 81 1
4 82 4
4 83 5
4 84 4
4 85 3
4 86 3
4 87 2
4 88 2
4 89 1
4 90 5
4 91 3
4 92 1
4 93 3
4 94 1
4 95 2
4 96 5
4 97 3
4 98 4
4 99 3
4 100 2
5 6 1
5 7 4
5 8 5
5 9 3
5 10 1
5 11 3
5 12 2
5 13 2
5 14 2
5 15 4
5 16 3
5 17 4
5 18 4
5 19 1
5 20 5
5 21 5
5 22 2
5 23 2
5 24 2
5 25 2
5 26 2
5 27 4
5 28 1
5 29 4
5 30 1
5 31 1
5 32 2
5 33 4
5 34 2
5 35 2
5 36 4
5 37 2
5 38 4
5 39 4
5 40 1
5 41 3
5 42 5
5 43 5
5 44 2
5 45 4
5 46 1
5 47 5
5 48 5
5 49 3
5 50 2
5 51 5
5 52 4
5 53 4
5 54 5
5 55 3
5 56 3
5 57 3
5 58 1
5 59 5
5 60 3
5 61 5
5 62 1
5 63 4
5 64 1
5 65 2
5 66 2
5 67 5
5 68 1
5 69 2
5 70 4
5 71 5
5 72 1
5 73 5
5 74 4
5 75 1
5 76 3
5 77 1
5 78 1
5 79 2
5 80 1
5 81 3
5 82 1
5 83 5
5 84 2
5 85 4
5 86 4
5 87 1
5 88 4
5 89 4
5 90 5
5 91 5
5 92 3
5 93 2
5 94 3
5 95 3
5 96 2
5 97 1
5 98 4
5 99 2
5 100 3
6 7 1
6 8 2
6 9 3
6 10 4
6 11 2
6 12 2
6 13 2
6 14 5
6 15 3
6 16 4
6 17 2
6 18 2
6 19 1
6 20 1
6 21 1
6 22 5
6 23 5
6 24 5
6 25 4
6 26 2
6 27 5
6 28 4
6 29 4
6 30 2
6 31 5
6 32 5
6 33 1
6 34 3
6 35 2
6 36 1
6 37 4
6 38 4
6 39 4
6 40 4
6 41 5
6 42 4
6 43 4
6 44 2
6 45 4
6 46 2
6 47 4
6 48 2
6 49 2
6 50 3
6 51 4
6 52 1
6 53 5
6 54 2
6 55 1
6 56 3
6 57 5
6 58 4
6 59 4
6 60 3
6 61 2
6 62 3
6 63 2
6 64 1
6 65 4
6 66 2
6 67 3
6 68 4
6 69 4
6 70 5
6 71 5
6 72 3
6 73 5
6 74 3
6 75 5
6 76 3
6 77 4
6 78 1
6 79 2
6 80 3
6 81 5
6 82 3
6 83 1
6 84 5
6 85 1
6 86 2
6 87 1
6 88 2
6 89 5
6 90 4
6 91 1
6 92 4
6 93 2
6 94 1
6 95 4
6 96 3
6 97 3
6 98 4
6 99 2
6 100 1
7 8 4
7 9 5
7 10 1
7 11 5
7 12 3
7 13 2
7 14 3
7 15 2
7 16 1
7 17 5
7 18 4
7 19 3
7 20 5
7 21 1
7 22 5
7 23 1
7 24 1
7 25 1
7 26 5
7 27 4
7 28 2
7 29 4
7 30 1
7 31 3
7 32 1
7 33 4
7 34 1
7 35 4
7 36 5
7 37 3
7 38 3
7 39 5
7 40 5
7 41 3
7 42 2
7 43 3
7 44 2
7 45 2
7 46 4
7 47 2
7 48 2
7 49 1
7 50 5
7 51 1
7 52 3
7 53 2
7 54 5
7 55 1
7 56 2
7 57 2
7 58 2
7 59 2
7 60 1
7 61 2
7 62 2
7 63 1
7 64 2
7 65 5
7 66 4
7 67 3
7 68 3
7 69 4
7 70 5
7 71 3
7 72 3
7 73 3
7 74 3
7 75 4
7 76 1
7 77 3
7 78 1
7 79 1
7 80 2
7 81 3
7 82 5
7 83 1
7 84 4
7 85 3
7 86 3
7 87 4
7 88 3
7 89 5
7 90 5
7 91 3
7 92 3
7 93 1
7 94 3
7 95 5
7 96 3
7 97 2
7 98 2
7 99 3
7 100 1
8 9 5
8 10 5
8 11 1
8 12 1
8 13 5
8 14 1
8 15 1
8 16 2
8 17 3
8 18 5
8 19 5
8 20 4
8 21 5
8 22 4
8 23 4
8 24 3
8 25 2
8 26 4
8 27 5
8 28 2
8 29 3
8 30 3
8 31 4
8 32 3
8 33 5
8 34 2
8 35 3
8 36 1
8 37 2
8 38 3
8 39 3
8 40 5
8 41 5
8 42 1
8 43 2
8 44 1
8 45 5
8 46 2
8 47 2
8 48 4
8 49 2
8 50 3
8 51 4
8 52 2
8 53 3
8 54 4
8 55 5
8 56 2
8 57 2
8 58 2
8 59 3
8 60 4
8 61 3
8 62 3
8 63 4
8 64 1
8 65 5
8 66 5
8 67 5
8 68 4
8 69 2
8 70 1
8 71 4
8 72 1
8 73 2
8 74 4
8 75 4
8 76 2
8 77 5
8 78 4
8 79 2
8 80 5
8 81 1
8 82 4
8 83 4
8 84 5
8 85 1
8 86 3
8 87 2
8 88 4
8 89 5
8 90 5
8 91 1
8 92 2
8 93 3
8 94 4
8 95 5
8 96 5
8 97 5
8 98 3
8 99 3
8 100 4
9 10 5
9 11 4
9 12 5
9 13 5
9 14 3
9 15 4
9 16 4
9 17 1
9 18 3
9 19 4
9 20 2
9 21 2
9 22 3
9 23 4
9 24 4
9 25 3
9 26 2
9 27 5
9 28 2
9 29 5
9 30 2
9 31 1
9 32 3
9 33 2
9 34 1
9 35 4
9 36 5
9 37 1
9 38 5
9 39 4
9 40 1
9 41 2
9 42 3
9 43 4
9 44 2
9 45 1
9 46 2
9 47 4
9 48 4
9 49 1
9 50 5
9 51 3
9 52 5
9 53 4
9 54 5
9 55 3
9 56 1
9 57 3
9 58 1
9 59 4
9 60 5
9 61 4
9 62 4
9 63 2
9 64 4
9 65 3
9 66 3
9 67 4
9 68 3
9 69 3
9 70 2
9 71 2
9 72 2
9 73 4
9 74 3
9 75 4
9 76 5
9 77 5
9 78 4
9 79 1
9 80 2
9 81 2
9 82 4
9 83 4
9 84 3
9 85 3
9 86 2
9 87 1
9 88 1
9 89 4
9 90 4
9 91 5
9 92 3
9 93 3
9 94 4
9 95 2
9 96 4
9 97 3
9 98 1
9 99 1
9 100 3
10 11 5
10 12 1
10 13 5
10 14 1
10 15 3
10 16 4
10 17 4
10 18 2
10 19 4
10 20 5
10 21 5
10 22 2
10 23 5
10 24 3
10 25 2
10 26 2
10 27 5
10 28 1
10 29 3
10 30 4
10 31 3
10 32 5
10 33 2
10 34 3
10 35 4
10 36 5
10 37 5
10 38 3
10 39 5
10 40 4
10 41 5
10 42 4
10 43 3
10 44 2
10 45 4
10 46 4
10 47 2
10 48 5
10 49 2
10 50 4
10 51 1
10 52 1
10 53 1
10 54 3
10 55 5
10 56 1
10 57 3
10 58 5
10 59 5
10 60 2
10 61 2
10 62 2
10 63 5
10 64 4
10 65 5
10 66 3
10 67 5
10 68 1
10 69 2
10 70 1
10 71 2
10 72 2
10 73 2
10 74 2
10 75 2
10 76 2
10 77 4
10 78 3
10 79 5
10 80 3
10 81 2
10 82 1
10 83 5
10 84 5
10 85 1
10 86 2
10 87 4
10 88 4
10 89 1
10 90 5
10 91 4
10 92 4
10 93 5
10 94 3
10 95 2
10 96 2
10 97 1
10 98 5
10 99 2
10 100 3
11 12 4
11 13 5
11 14 1
11 15 3
11 16 3
11 17 4
11 18 3
11 19 5
11 20 2
11 21 4
11 22 2
11 23 2
11 24 5
11 25 5
11 26 2
11 27 4
11 28 3
11 29 5
11 30 3
11 31 1
11 32 1
11 33 3
11 34 4
11 35 2
11 36 3
11 37 5
11 38 2
11 39 1
11 40 3
11 41 1
11 42 2
11 43 3
11 44 2
11 45 5
11 46 2
11 47 2
11 48 2
11 49 2
11 50 2
11 51 5
11 52 3
11 53 1
11 54 2
11 55 1
11 56 5
11 57 2
11 58 2
11 59 1
11 60 1
11 61 3
11 62 2
11 63 2
11 64 3
11 65 4
11 66 3
11 67 2
11 68 3
11 69 1
11 70 4
11 71 3
11 72 5
11 73 5
11 74 1
11 75 1
11 76 1
11 77 3
11 78 5
11 79 5
11 80 5
11 81 4
11 82 5
11 83 1
11 84 4
11 85 5
11 86 4
11 87 3
11 88 1
11 89 2
11 90 2
11 91 3
11 92 2
11 93 3
11 94 5
11 95 2
11 96 5
11 97 3
11 98 2
11 99 2
11 100 1
12 13 4
12 14 1
12 15 5
12 16 3
12 17 3
12 18 5
12 19 2
12 20 3
12 21 3
12 22 3
12 23 1
12 24 4
12 25 1
12 26 1
12 27 5
12 28 2
12 29 4
12 30 4
12 31 3
12 32 5
12 33 2
12 34 4
12 35 5
12 36 4
12 37 2
12 38 2
12 39 1
12 40 2
12 41 3
12 42 4
12 43 4
12 44 5
12 45 1
12 46 3
12 47 4
12 48 1
12 49 5
12 50 4
12 51 4
12 52 2
12 53 3
12 54 1
12 55 2
12 56 5
12 57 3
12 58 1
12 59 4
12 60 3
12 61 2
12 62 2
12 63 5
12 64 5
12 65 5
12 66 2
12 67 5
12 68 2
12 69 3
12 70 4
12 71 4
12 72 4
12 73 5
12 74 4
12 75 2
12 76 5
12 77 5
12 78 3
12 79 1
12 80 3
12 81 5
12 82 4
12 83 5
12 84 1
12 85 4
12 86 5
12 87 2
12 88 3
12 89 3
12 90 2
12 91 4
12 92 4
12 93 5
12 94 4
12 95 1
12 96 3
12 97 2
12 98 4
12 99 2
12 100 2
13 14 1
13 15 5
13 16 4
13 17 4
13 18 1
13 19 4
13 20 3
13 21 4
13 22 1
13 23 5
13 24 3
13 25 2
13 26 3
13 27 3
13 28 4
13 29 2
13 30 5
13 31 1
13 32 3
13 33 1
13 34 1
13 35 3
13 36 4
13 37 2
13 38 4
13 39 2
13 40 2
13 41 2
13 42 3
13 43 5
13 44 5
13 45 3
13 46 4
13 47 2
13 48 1
13 49 1
13 50 3
13 51 3
13 52 4
13 53 1
13 54 1
13 55 2
13 56 2
13 57 3
13 58 2
13 59 5
13 60 5
13 61 2
13 62 4
13 63 2
13 64 4
13 65 2
13 66 5
13 67 1
13 68 4
13 69 4
13 70 2
13 71 4
13 72 2
13 73 2
13 74 2
13 75 5
13 76 3
13 77 5
13 78 1
13 79 4
13 80 3
13 81 4
13 82 1
13 83 4
13 84 4
13 85 3
13 86 3
13 87 5
13 88 1
13 89 4
13 90 1
13 91 3
13 92 5
13 93 1
13 94 3
13 95 4
13 96 4
13 97 2
13 98 2
13 99 4
13 100 2
14 15 5
14 16 1
14 17 4
14 18 2
14 19 3
14 20 2
14 21 5
14 22 4
14 23 3
14 24 2
14 25 5
14 26 2
14 27 3
14 28 2
14 29 1
14 30 2
14 31 1
14 32 2
14 33 5
14 34 5
14 35 2
14 36 3
14 37 4
14 38 1
14 39 2
14 40 5
14 41 4
14 42 3
14 43 2
14 44 3
14 45 4
14 46 2
14 47 4
14 48 4
14 49 4
14 50 4
14 51 3
14 52 4
14 53 3
14 54 3
14 55 1
14 56 4
14 57 3
14 58 5
14 59 3
14 60 3
14 61 2
14 62 5
14 63 4
14 64 5
14 65 5
14 66 3
14 67 3
14 68 5
14 69 2
14 70 1
14 71 1
14 72 1
14 73 3
14 74 1
14 75 5
14 76 4
14 77 1
14 78 3
14 79 4
14 80 1
14 81 5
14 82 5
14 83 5
14 84 2
14 85 1
14 86 5
14 87 4
14 88 3
14 89 5
14 90 2
14 91 4
14 92 3
14 93 5
14 94 4
14 95 2
14 96 1
14 97 1
14 98 1
14 99 2
14 100 5
15 16 2
15 17 3
15 18 5
15 19 1
15 20 2
15 21 5
15 22 1
15 23 5
15 24 1
15 25 4
15 26 5
15 27 2
15 28 5
15 29 2
15 30 2
15 31 4
15 32 3
15 33 1
15 34 3
15 35 3
15 36 1
15 37 2
15 38 4
15 39 1
15 40 3
15 41 3
15 42 2
15 43 2
15 44 2
15 45 4
15 46 4
15 47 5
15 48 5
15 49 4
15 50 2
15 51 3
15 52 4
15 53 2
15 54 3
15 55 3
15 56 5
15 57 4
15 58 2
15 59 1
15 60 2
15 61 1
15 62 3
15 63 1
15 64 4
15 65 4
15 66 2
15 67 3
15 68 1
15 69 4
15 70 5
15 71 4
15 72 4
15 73 5
15 74 3
15 75 3
15 76 2
15 77 5
15 78 1
15 79 5
15 80 4
15 81 5
15 82 1
15 83 1
15 84 2
15 85 3
15 86 5
15 87 2
15 88 5
15 89 4
15 90 5
15 91 5
15 92 5
15 93 5
15 94 4
15 95 4
15 96 4
15 97 1
15 98 5
15 99 1
15 100 1
16 17 4
16 18 3
16 19 3
16 20 1
16 21 5
16 22 2
16 23 2
16 24 4
16 25 3
16 26 5
16 27 1
16 28 2
16 29 4
16 30 1
16 31 3
16 32 1
16 33 3
16 34 5
16 35 1
16 36 1
16 37 4
16 38 3
16 39 1
16 40 3
16 41 2
16 42 3
16 43 4
16 44 4
16 45 1
16 46 1
16 47 4
16 48 2
16 49 3
16 50 5
16 51 3
16 52 3
16 53 1
16 54 2
16 55 5
16 56 4
16 57 4
16 58 2
16 59 3
16 60 5
16 61 2
16 62 2
16 63 4
16 64 4
16 65 1
16 66 4
16 67 2
16 68 3
16 69 4
16 70 1
16 71 2
16 72 2
16 73 1
16 74 5
16 75 5
16 76 5
16 77 3
16 78 2
16 79 5
16 80 1
16 81 1
16 82 2
16 83 2
16 84 4
16 85 1
16 86 3
16 87 4
16 88 3
16 89 5
16 90 2
16 91 4
16 92 3
16 93 4
16 94 2
16 95 1
16 96 3
16 97 5
16 98 4
16 99 4
16 100 2
17 18 3
17 19 5
17 20 2
17 21 2
17 22 1
17 23 1
17 24 4
17 25 3
17 26 5
17 27 4
17 28 1
17 29 2
17 30 2
17 31 4
17 32 3
17 33 5
17 34 1
17 35 1
17 36 1
17 37 3
17 38 1
17 39 2
17 40 3
17 41 1
17 42 2
17 43 2
17 44 2
17 45 2
17 46 1
17 47 2
17 48 3
17 49 3
17 50 2
17 51 2
17 52 4
17 53 5
17 54 5
17 55 1
17 56 2
17 57 4
17 58 3
17 59 5
17 60 2
17 61 1
17 62 2
17 63 4
17 64 5
17 65 5
17 66 5
17 67 4
17 68 3
17 69 2
17 70 3
17 71 1
17 72 4
17 73 5
17 74 2
17 75 5
17 76 5
17 77 4
17 78 3
17 79 5
17 80 1
17 81 5
17 82 4
17 83 3
17 84 1
17 85 3
17 86 5
17 87 2
17 88 5
17 89 3
17 90 5
17 91 1
17 92 1
17 93 3
17 94 5
17 95 1
17 96 5
17 97 5
17 98 2
17 99 2
17 100 4
18 19 1
18 20 5
18 21 2
18 22 4
18 23 4
18 24 5
18 25 1
18 26 1
18 27 2
18 28 5
18 29 2
18 30 3
18 31 4
18 32 1
18 33 4
18 34 3
18 35 2
18 36 4
18 37 3
18 38 2
18 39 4
18 40 5
18 41 5
18 42 2
18 43 3
18 44 2
18 45 5
18 46 1
18 47 3
18 48 3
18 49 5
18 50 3
18 51 2
18 52 4
18 53 2
18 54 3
18 55 2
18 56 2
18 57 2
18 58 4
18 59 5
18 60 3
18 61 5
18 62 4
18 63 5
18 64 3
18 65 4
18 66 2
18 67 2
18 68 3
18 69 4
18 70 2
18 71 2
18 72 3
18 73 3
18 74 3
18 75 5
18 76 1
18 77 4
18 78 3
18 79 4
18 80 3
18 81 4
18 82 1
18 83 4
18 84 2
18 85 3
18 86 5
18 87 4
18 88 1
18 89 4
18 90 2
18 91 2
18 92 1
18 93 1
18 94 4
18 95 2
18 96 2
18 97 4
18 98 2
18 99 3
18 100 5
19 20 3
19 21 2
19 22 5
19 23 1
19 24 2
19 25 5
19 26 5
19 27 3
19 28 3
19 29 1
19 30 5
19 31 3
19 32 2
19 33 4
19 34 2
19 35 4
19 36 2
19 37 4
19 38 5
19 39 3
19 40 4
19 41 4
19 42 2
19 43 3
19 44 1
19 45 4
19 46 1
19 47 1
19 48 5
19 49 4
19 50 2
19 51 5
19 52 3
19 53 4
19 54 5
19 55 3
19 56 2
19 57 3
19 58 1
19 59 2
19 60 2
19 61 3
19 62 1
19 63 4
19 64 3
19 65 2
19 66 2
19 67 4
19 68 1
19 69 4
19 70 1
19 71 5
19 72 1
19 73 5
19 74 1
19 75 3
19 76 1
19 77 2
19 78 1
19 79 2
19 80 5
19 81 4
19 82 1
19 83 2
19 84 2
19 85 1
19 86 2
19 87 3
19 88 2
19 89 5
19 90 5
19 91 2
19 92 3
19 93 2
19 94 2
19 95 4
19 96 4
19 97 2
19 98 3
19 99 1
19 100 1
20 21 2
20 22 4
20 23 5
20 24 2
20 25 1
20 26 4
20 27 2
20 28 2
20 29 3
20 30 2
20 31 1
20 32 5
20 33 1
20 34 2
20 35 2
20 36 1
20 37 2
20 38 3
20 39 4
20 40 2
20 41 2
20 42 4
20 43 4
20 44 3
20 45 1
20 46 3
20 47 4
20 48 5
20 49 2
20 50 2
20 51 1
20 52 1
20 53 2
20 54 5
20 55 1
20 56 1
20 57 4
20 58 3
20 59 2
20 60 4
20 61 3
20 62 3
20 63 5
20 64 3
20 65 4
20 66 2
20 67 3
20 68 4
20 69 3
20 70 5
20 71 2
20 72 5
20 73 1
20 74 2
20 75 1
20 76 2
20 77 5
20 78 5
20 79 5
20 80 1
20 81 5
20 82 1
20 83 3
20 84 2
20 85 1
20 86 4
20 87 1
20 88 1
20 89 2
20 90 4
20 91 3
20 92 3
20 93 2
20 94 3
20 95 3
20 96 1
20 97 1
20 98 4
20 99 3
20 100 1
21 22 2
21 23 4
21 24 2
21 25 3
21 26 2
21 27 3
21 28 2
21 29 1
21 30 4
21 31 3
21 32 1
21 33 2
21 34 4
21 35 4
21 36 2
21 37 3
21 38 2
21 39 5
21 40 5
21 41 2
21 42 2
21 43 2
21 44 4
21 45 2
21 46 2
21 47 3
21 48 5
21 49 5
21 50 5
21 51 1
21 52 5
21 53 1
21 54 3
21 55 5
21 56 4
21 57 2
21 58 3
21 59 5
21 60 2
21 61 1
21 62 1
21 63 3
21 64 1
21 65 5
21 66 5
21 67 1
21 68 5
21 69 4
21 70 5
21 71 5
21 72 5
21 73 1
21 74 3
21 75 1
21 76 1
21 77 1
21 78 4
21 79 4
21 80 2
21 81 2
21 82 2
21 83 2
21 84 2
21 85 2
21 86 3
21 87 4
21 88 1
21 89 5
21 90 4
21 91 2
21 92 3
21 93 3
21 94 1
21 95 5
21 96 1
21 97 2
21 98 1
21 99 2
21 100 3
22 23 5
22 24 3
22 25 4
22 26 5
22 27 4
22 28 3
22 29 1
22 30 2
22 31 4
22 32 2
22 33 1
22 34 3
22 35 1
22 36 5
22 37 5
22 38 5
22 39 4
22 40 1
22 41 5
22 42 5
22 43 5
22 44 2
22 45 4
22 46 2
22 47 2
22 48 4
22 49 5
22 50 4
22 51 5
22 52 1
22 53 5
22 54 4
22 55 3
22 56 4
22 57 1
22 58 5
22 59 3
22 60 2
22 61 2
22 62 4
22 63 1
22 64 2
22 65 4
22 66 5
22 67 3
22 68 4
22 69 5
22 70 4
22 71 2
22 72 5
22 73 2
22 74 4
22 75 3
22 76 3
22 77 5
22 78 3
22 79 3
22 80 5
22 81 5
22 82 1
22 83 5
22 84 3
22 85 4
22 86 1
22 87 1
22 88 1
22 89 3
22 90 4
22 91 1
22 92 3
22 93 5
22 94 5
22 95 4
22 96 4
22 97 5
22 98 2
22 99 5
22 100 3
23 24 3
23 25 4
23 26 1
23 27 1
23 28 2
23 29 5
23 30 3
23 31 4
23 32 5
23 33 1
23 34 4
23 35 4
23 36 5
23 37 3
23 38 1
23 39 1
23 40 5
23 41 3
23 42 5
23 43 2
23 44 2
23 45 2
23 46 5
23 47 5
23 48 1
23 49 5
23 50 2
23 51 5
23 52 5
23 53 5
23 54 2
23 55 2
23 56 2
23 57 2
23 58 1
23 59 5
23 60 3
23 61 1
23 62 3
23 63 2
23 64 2
23 65 1
23 66 1
23 67 4
23 68 2
23 69 5
23 70 2
23 71 2
23 72 3
23 73 3
23 74 2
23 75 5
23 76 1
23 77 2
23 78 5
23 79 5
23 80 2
23 81 2
23 82 1
23 83 5
23 84 1
23 85 1
23 86 2
23 87 4
23 88 1
23 89 5
23 90 1
23 91 4
23 92 3
23 93 2
23 94 1
23 95 1
23 96 2
23 97 5
23 98 4
23 99 4
23 100 3
24 25 1
24 26 2
24 27 2
24 28 5
24 29 4
24 30 2
24 31 2
24 32 3
24 33 3
24 34 5
24 35 4
24 36 3
24 37 1
24 38 2
24 39 3
24 40 4
24 41 3
24 42 5
24 43 3
24 44 2
24 45 1
24 46 4
24 47 1
24 48 2
24 49 5
24 50 5
24 51 3
24 52 3
24 53 5
24 54 5
24 55 1
24 56 3
24 57 4
24 58 4
24 59 4
24 60 3
24 61 5
24 62 5
24 63 1
24 64 2
24 65 4
24 66 4
24 67 3
24 68 2
24 69 1
24 70 3
24 71 2
24 72 4
24 73 1
24 74 2
24 75 4
24 76 1
24 77 2
24 78 3
24 79 3
24 80 3
24 81 1
24 82 1
24 83 3
24 84 1
24 85 5
24 86 2
24 87 3
24 88 1
24 89 1
24 90 1
24 91 1
24 92 1
24 93 4
24 94 2
24 95 3
24 96 4
24 97 4
24 98 4
24 99 4
24 100 1
25 26 3
25 27 4
25 28 5
25 29 3
25 30 2
25 31 4
25 32 4
25 33 2
25 34 5
25 35 4
25 36 5
25 37 3
25 38 5
25 39 1
25 40 2
25 41 5
25 42 5
25 43 5
25 44 3
25 45 3
25 46 1
25 47 2
25 48 4
25 49 5
25 50 3
25 51 4
25 52 4
25 53 3
25 54 3
25 55 2
25 56 5
25 57 2
25 58 3
25 59 1
25 60 4
25 61 2
25 62 5
25 63 1
25 64 3
25 65 5
25 66 5
25 67 1
25 68 1
25 69 1
25 70 3
25 71 5
25 72 2
25 73 5
25 74 1
25 75 3
25 76 4
25 77 1
25 78 2
25 79 2
25 80 1
25 81 5
25 82 2
25 83 5
25 84 3
25 85 5
25 86 4
25 87 3
25 88 1
25 89 5
25 90 5
25 91 3
25 92 2
25 93 4
25 94 4
25 95 1
25 96 1
25 97 2
25 98 4
25 99 1
25 100 1
26 27 1
26 28 4
26 29 3
26 30 5
26 31 1
26 32 2
26 33 2
26 34 1
26 35 2
26 36 3
26 37 2
26 38 1
26 39 2
26 40 1
26 41 3
26 42 4
26 43 2
26 44 3
26 45 2
26 46 3
26 47 4
26 48 1
26 49 3
26 50 1
26 51 1
26 52 3
26 53 2
26 54 5
26 55 5
26 56 5
26 57 4
26 58 3
26 59 4
26 60 4
26 61 4
26 62 5
26 63 5
26 64 1
26 65 2
26 66 1
26 67 4
26 68 2
26 69 3
26 70 3
26 71 2
26 72 3
26 73 4
26 74 3
26 75 5
26 76 3
26 77 4
26 78 5
26 79 1
26 80 2
26 81 3
26 82 4
26 83 4
26 84 4
26 85 2
26 86 4
26 87 1
26 88 2
26 89 2
26 90 4
26 91 1
26 92 3
26 93 4
26 94 1
26 95 1
26 96 3
26 97 5
26 98 1
26 99 2
26 100 5
27 28 2
27 29 3
27 30 2
27 31 4
27 32 2
27 33 4
27 34 5
27 35 3
27 36 3
27 37 2
27 38 5
27 39 3
27 40 2
27 41 4
27 42 1
27 43 3
27 44 3
27 45 5
27 46 5
27 47 2
27 48 1
27 49 3
27 50 3
27 51 2
27 52 2
27 53 5
27 54 4
27 55 1
27 56 1
27 57 4
27 58 1
27 59 4
27 60 5
27 61 2
27 62 5
27 63 3
27 64 5
27 65 5
27 66 1
27 67 2
27 68 1
27 69 3
27 70 5
27 71 3
27 72 5
27 73 3
27 74 4
27 75 5
27 76 5
27 77 3
27 78 4
27 79 4
27 80 4
27 81 3
27 82 2
27 83 2
27 84 1
27 85 1
27 86 2
27 87 1
27 88 5
27 89 2
27 90 4
27 91 4
27 92 4
27 93 2
27 94 2
27 95 4
27 96 1
27 97 5
27 98 1
27 99 5
27 100 4
28 29 5
28 30 4
28 31 1
28 32 3
28 33 4
28 34 2
28 35 1
28 36 1
28 37 5
28 38 5
28 39 1
28 40 3
28 41 3
28 42 4
28 43 1
28 44 1
28 45 2
28 46 4
28 47 3
28 48 4
28 49 5
28 50 1
28 51 5
28 52 1
28 53 3
28 54 2
28 55 2
28 56 4
28 57 5
28 58 5
28 59 5
28 60 1
28 61 1
28 62 4
28 63 2
28 64 1
28 65 3
28 66 1
28 67 1
28 68 3
28 69 4
28 70 3
28 71 1
28 72 5
28 73 5
28 74 2
28 75 5
28 76 4
28 77 1
28 78 2
28 79 2
28 80 1
28 81 5
28 82 5
28 83 4
28 84 2
28 85 2
28 86 1
28 87 2
28 88 4
28 89 2
28 90 5
28 91 1
28 92 5
28 93 2
28 94 2
28 95 5
28 96 4
28 97 1
28 98 1
28 99 5
28 100 2
29 30 1
29 31 2
29 32 3
29 33 5
29 34 2
29 35 5
29 36 4
29 37 1
29 38 4
29 39 2
29 40 4
29 41 3
29 42 3
29 43 4
29 44 4
29 45 5
29 46 1
29 47 1
29 48 1
29 49 5
29 50 1
29 51 3
29 52 4
29 53 5
29 54 1
29 55 2
29 56 3
29 57 5
29 58 4
29 59 5
29 60 3
29 61 4
29 62 2
29 63 3
29 64 3
29 65 4
29 66 5
29 67 4
29 68 5
29 69 2
29 70 5
29 71 3
29 72 4
29 73 5
29 74 2
29 75 2
29 76 2
29 77 5
29 78 5
29 79 1
29 80 3
29 81 3
29 82 1
29 83 3
29 84 1
29 85 5
29 86 1
29 87 4
29 88 1
29 89 3
29 90 3
29 91 1
29 92 4
29 93 3
29 94 3
29 95 3
29 96 1
29 97 4
29 98 2
29 99 1
29 100 2
30 31 4
30 32 2
30 33 2
30 34 3
30 35 4
30 36 4
30 37 2
30 38 4
30 39 1
30 40 4
30 41 1
30 42 1
30 43 2
30 44 3
30 45 1
30 46 1
30 47 5
30 48 3
30 49 2
30 50 3
30 51 4
30 52 5
30 53 2
30 54 5
30 55 3
30 56 2
30 57 1
30 58 2
30 59 1
30 60 4
30 61 4
30 62 2
30 63 4
30 64 2
30 65 5
30 66 2
30 67 2
30 68 5
30 69 5
30 70 1
30 71 2
30 72 3
30 73 2
30 74 3
30 75 1
30 76 4
30 77 3
30 78 4
30 79 1
30 80 3
30 81 2
30 82 4
30 83 5
30 84 2
30 85 4
30 86 3
30 87 2
30 88 1
30 89 4
30 90 4
30 91 2
30 92 4
30 93 5
30 94 1
30 95 5
30 96 5
30 97 5
30 98 5
30 99 1
30 100 1
31 32 4
31 33 2
31 34 5
31 35 5
31 36 4
31 37 3
31 38 5
31 39 3
31 40 1
31 41 5
31 42 1
31 43 3
31 44 5
31 45 3
31 46 2
31 47 1
31 48 4
31 49 2
31 50 3
31 51 5
31 52 3
31 53 3
31 54 3
31 55 1
31 56 2
31 57 3
31 58 3
31 59 5
31 60 2
31 61 5
31 62 1
31 63 3
31 64 2
31 65 2
31 66 4
31 67 3
31 68 1
31 69 2
31 70 5
31 71 3
31 72 5
31 73 4
31 74 1
31 75 4
31 76 4
31 77 3
31 78 3
31 79 1
31 80 4
31 81 4
31 82 4
31 83 1
31 84 2
31 85 3
31 86 2
31 87 3
31 88 1
31 89 2
31 90 5
31 91 3
31 92 5
31 93 2
31 94 4
31 95 2
31 96 1
31 97 4
31 98 3
31 99 3
31 100 5
32 33 5
32 34 4
32 35 4
32 36 4
32 37 5
32 38 5
32 39 5
32 40 3
32 41 3
32 42 2
32 43 5
32 44 4
32 45 1
32 46 2
32 47 5
32 48 4
32 49 5
32 50 2
32 51 4
32 52 2
32 53 5
32 54 4
32 55 4
32 56 4
32 57 4
32 58 5
32 59 3
32 60 2
32 61 5
32 62 3
32 63 2
32 64 1
32 65 2
32 66 3
32 67 3
32 68 5
32 69 3
32 70 4
32 71 4
32 72 3
32 73 1
32 74 2
32 75 5
32 76 2
32 77 2
32 78 2
32 79 3
32 80 3
32 81 1
32 82 2
32 83 2
32 84 3
32 85 3
32 86 5
32 87 1
32 88 2
32 89 3
32 90 4
32 91 3
32 92 5
32 93 1
32 94 1
32 95 3
32 96 2
32 97 4
32 98 3
32 99 4
32 100 2
33 34 2
33 35 3
33 36 3
33 37 3
33 38 1
33 39 1
33 40 2
33 41 2
33 42 3
33 43 2
33 44 2
33 45 5
33 46 1
33 47 1
33 48 3
33 49 1
33 50 1
33 51 2
33 52 2
33 53 5
33 54 1
33 55 3
33 56 3
33 57 1
33 58 2
33 59 2
33 60 1
33 61 2
33 62 3
33 63 3
33 64 3
33 65 2
33 66 5
33 67 3
33 68 3
33 69 2
33 70 4
33 71 4
33 72 5
33 73 4
33 74 2
33 75 2
33 76 3
33 77 3
33 78 2
33 79 4
33 80 2
33 81 3
33 82 5
33 83 2
33 84 4
33 85 3
33 86 5
33 87 2
33 88 1
33 89 1
33 90 2
33 91 1
33 92 1
33 93 3
33 94 4
33 95 3
33 96 5
33 97 1
33 98 2
33 99 5
33 100 1
34 35 3
34 36 5
34 37 1
34 38 3
34 39 5
34 40 3
34 41 3
34 42 1
34 43 2
34 44 5
34 45 1
34 46 3
34 47 1
34 48 1
34 49 2
34 50 3
34 51 4
34 52 5
34 53 4
34 54 2
34 55 4
34 56 4
34 57 5
34 58 3
34 59 4
34 60 5
34 61 1
34 62 5
34 63 5
34 64 1
34 65 2
34 66 4
34 67 5
34 68 1
34 69 1
34 70 5
34 71 1
34 72 2
34 73 4
34 74 3
34 75 3
34 76 1
34 77 5
34 78 2
34 79 1
34 80 1
34 81 5
34 82 4
34 83 4
34 84 5
34 85 3
34 86 1
34 87 2
34 88 2
34 89 4
34 90 2
34 91 5
34 92 4
34 93 5
34 94 2
34 95 2
34 96 2
34 97 2
34 98 3
34 99 5
34 100 2
35 36 1
35 37 4
35 38 2
35 39 3
35 40 3
35 41 1
35 42 1
35 43 3
35 44 2
35 45 5
35 46 1
35 47 1
35 48 3
35 49 5
35 50 5
35 51 2
35 52 1
35 53 1
35 54 3
35 55 5
35 56 3
35 57 4
35 58 2
35 59 5
35 60 1
35 61 3
35 62 2
35 63 5
35 64 2
35 65 5
35 66 1
35 67 2
35 68 4
35 69 5
35 70 1
35 71 5
35 72 4
35 73 4
35 74 1
35 75 5
35 76 4
35 77 3
35 78 3
35 79 4
35 80 2
35 81 4
35 82 3
35 83 4
35 84 1
35 85 2
35 86 5
35 87 3
35 88 3
35 89 1
35 90 2
35 91 2
35 92 1
35 93 5
35 94 3
35 95 4
35 96 4
35 97 2
35 98 2
35 99 3
35 100 4
36 37 3
36 38 2
36 39 3
36 40 1
36 41 4
36 42 5
36 43 4
36 44 4
36 45 5
36 46 1
36 47 4
36 48 3
36 49 5
36 50 5
36 51 1
36 52 5
36 53 3
36 54 1
36 55 3
36 56 5
36 57 5
36 58 5
36 59 5
36 60 4
36 61 4
36 62 3
36 63 3
36 64 1
36 65 5
36 66 1
36 67 3
36 68 3
36 69 4
36 70 4
36 71 1
36 72 2
36 73 2
36 74 3
36 75 4
36 76 3
36 77 4
36 78 5
36 79 2
36 80 1
36 81 5
36 82 1
36 83 3
36 84 4
36 85 1
36 86 3
36 87 2
36 88 5
36 89 2
36 90 5
36 91 5
36 92 4
36 93 1
36 94 5
36 95 4
36 96 5
36 97 5
36 98 5
36 99 5
36 100 1
37 38 1
37 39 5
37 40 2
37 41 1
37 42 5
37 43 3
37 44 4
37 45 5
37 46 3
37 47 4
37 48 3
37 49 1
37 50 3
37 51 3
37 52 5
37 53 3
37 54 3
37 55 5
37 56 4
37 57 3
37 58 5
37 59 3
37 60 4
37 61 4
37 62 1
37 63 1
37 64 4
37 65 2
37 66 4
37 67 1
37 68 5
37 69 4
37 70 5
37 71 1
37 72 4
37 73 2
37 74 1
37 75 3
37 76 4
37 77 2
37 78 5
37 79 2
37 80 5
37 81 5
37 82 2
37 83 4
37 84 1
37 85 2
37 86 5
37 87 3
37 88 1
37 89 4
37 90 5
37 91 3
37 92 3
37 93 3
37 94 1
37 95 5
37 96 2
37 97 2
37 98 5
37 99 2
37 100 4
38 39 4
38 40 5
38 41 5
38 42 5
38 43 4
38 44 1
38 45 2
38 46 3
38 47 2
38 48 2
38 49 3
38 50 2
38 51 3
38 52 4
38 53 2
38 54 4
38 55 5
38 56 5
38 57 4
38 58 2
38 59 1
38 60 1
38 61 3
38 62 3
38 63 1
38 64 2
38 65 4
38 66 1
38 67 5
38 68 1
38 69 3
38 70 4
38 71 5
38 72 1
38 73 4
38 74 2
38 75 2
38 76 1
38 77 1
38 78 5
38 79 2
38 80 5
38 81 3
38 82 2
38 83 3
38 84 3
38 85 3
38 86 1
38 87 1
38 88 2
38 89 3
38 90 4
38 91 2
38 92 5
38 93 1
38 94 3
38 95 3
38 96 1
38 97 2
38 98 1
38 99 5
38 100 5
39 40 4
39 41 4
39 42 4
39 43 5
39 44 3
39 45 2
39 46 2
39 47 1
39 48 5
39 49 1
39 50 5
39 51 1
39 52 5
39 53 2
39 54 1
39 55 3
39 56 5
39 57 3
39 58 3
39 59 5
39 60 3
39 61 1
39 62 4
39 63 1
39 64 4
39 65 1
39 66 3
39 67 5
39 68 2
39 69 3
39 70 3
39 71 3
39 72 1
39 73 2
39 74 3
39 75 5
39 76 3
39 77 2
39 78 1
39 79 1
39 80 4
39 81 2
39 82 2
39 83 1
39 84 4
39 85 4
39 86 5
39 87 4
39 88 4
39 89 1
39 90 1
39 91 1
39 92 3
39 93 3
39 94 3
39 95 3
39 96 2
39 97 4
39 98 2
39 99 4
39 100 1
40 41 1
40 42 3
40 43 4
40 44 5
40 45 1
40 46 4
40 47 2
40 48 5
40 49 5
40 50 2
40 51 1
40 52 3
40 53 4
40 54 1
40 55 2
40 56 4
40 57 4
40 58 3
40 59 2
40 60 5
40 61 4
40 62 4
40 63 3
40 64 1
40 65 3
40 66 1
40 67 5
40 68 5
40 69 1
40 70 5
40 71 5
40 72 4
40 73 4
40 74 2
40 75 1
40 76 3
40 77 4
40 78 1
40 79 5
40 80 5
40 81 3
40 82 2
40 83 2
40 84 4
40 85 4
40 86 3
40 87 3
40 88 2
40 89 3
40 90 2
40 91 3
40 92 4
40 93 2
40 94 1
40 95 1
40 96 2
40 97 4
40 98 4
40 99 1
40 100 3
41 42 4
41 43 4
41 44 2
41 45 4
41 46 4
41 47 1
41 48 2
41 49 5
41 50 4
41 51 1
41 52 2
41 53 2
41 54 2
41 55 4
41 56 3
41 57 4
41 58 5
41 59 4
41 60 3
41 61 1
41 62 3
41 63 4
41 64 3
41 65 5
41 66 1
41 67 4
41 68 2
41 69 4
41 70 2
41 71 4
41 72 3
41 73 2
41 74 1
41 75 1
41 76 3
41 77 5
41 78 5
41 79 3
41 80 2
41 81 1
41 82 2
41 83 4
41 84 1
41 85 1
41 86 1
41 87 1
41 88 1
41 89 3
41 90 1
41 91 2
41 92 5
41 93 2
41 94 5
41 95 5
41 96 5
41 97 3
41 98 4
41 99 2
41 100 5
42 43 2
42 44 2
42 45 1
42 46 5
42 47 2
42 48 2
42 49 4
42 50 5
42 51 4
42 52 1
42 53 2
42 54 2
42 55 4
42 56 4
42 57 4
42 58 2
42 59 3
42 60 2
42 61 3
42 62 1
42 63 5
42 64 5
42 65 4
42 66 3
42 67 5
42 68 2
42 69 1
42 70 3
42 71 2
42 72 4
42 73 3
42 74 5
42 75 3
42 76 2
42 77 3
42 78 5
42 79 2
42 80 2
42 81 4
42 82 5
42 83 1
42 84 5
42 85 5
42 86 3
42 87 2
42 88 1
42 89 5
42 90 4
42 91 5
42 92 5
42 93 5
42 94 3
42 95 3
42 96 2
42 97 5
42 98 1
42 99 4
42 100 5
43 44 3
43 45 5
43 46 1
43 47 1
43 48 3
43 49 5
43 50 4
43 51 4
43 52 1
43 53 5
43 54 1
43 55 3
43 56 2
43 57 4
43 58 5
43 59 4
43 60 5
43 61 1
43 62 2
43 63 1
43 64 2
43 65 5
43 66 3
43 67 3
43 68 3
43 69 4
43 70 2
43 71 4
43 72 2
43 73 2
43 74 5
43 75 1
43 76 4
43 77 2
43 78 3
43 79 3
43 80 3
43 81 3
43 82 4
43 83 1
43 84 3
43 85 2
43 86 3
43 87 2
43 88 5
43 89 1
43 90 3
43 91 3
43 92 5
43 93 3
43 94 4
43 95 4
43 96 3
43 97 1
43 98 3
43 99 2
43 100 5
44 45 3
44 46 5
44 47 5
44 48 4
44 49 3
44 50 4
44 51 2
44 52 5
44 53 3
44 54 3
44 55 3
44 56 5
44 57 5
44 58 1
44 59 3
44 60 1
44 61 1
44 62 1
44 63 5
44 64 4
44 65 4
44 66 3
44 67 4
44 68 1
44 69 4
44 70 1
44 71 2
44 72 1
44 73 2
44 74 2
44 75 2
44 76 2
44 77 5
44 78 4
44 79 4
44 80 3
44 81 1
44 82 1
44 83 5
44 84 3
44 85 4
44 86 1
44 87 4
44 88 3
44 89 2
44 90 2
44 91 1
44 92 2
44 93 5
44 94 4
44 95 2
44 96 4
44 97 3
44 98 3
44 99 3
44 100 2
45 46 1
45 47 4
45 48 4
45 49 1
45 50 5
45 51 2
45 52 2
45 53 3
45 54 1
45 55 1
45 56 2
45 57 4
45 58 4
45 59 4
45 60 1
45 61 2
45 62 4
45 63 2
45 64 1
45 65 4
45 66 4
45 67 4
45 68 1
45 69 5
45 70 4
45 71 1
45 72 5
45 73 5
45 74 4
45 75 3
45 76 5
45 77 3
45 78 3
45 79 3
45 80 4
45 81 3
45 82 5
45 83 5
45 84 4
45 85 2
45 86 3
45 87 4
45 88 1
45 89 1
45 90 2
45 91 4
45 92 3
45 93 1
45 94 5
45 95 3
45 96 5
45 97 1
45 98 5
45 99 5
45 100 3
46 47 4
46 48 5
46 49 2
46 50 2
46 51 3
46 52 1
46 53 3
46 54 5
46 55 2
46 56 5
46 57 1
46 58 5
46 59 3
46 60 1
46 61 3
46 62 5
46 63 4
46 64 4
46 65 3
46 66 1
46 67 4
46 68 5
46 69 3
46 70 4
46 71 2
46 72 4
46 73 2
46 74 5
46 75 3
46 76 3
46 77 1
46 78 1
46 79 3
46 80 1
46 81 4
46 82 5
46 83 2
46 84 3
46 85 1
46 86 4
46 87 3
46 88 2
46 89 5
46 90 4
46 91 1
46 92 5
46 93 1
46 94 1
46 95 1
46 96 2
46 97 4
46 98 1
46 99 3
46 100 2
47 48 4
47 49 3
47 50 1
47 51 4
47 52 2
47 53 1
47 54 5
47 55 2
47 56 1
47 57 2
47 58 5
47 59 1
47 60 2
47 61 3
47 62 1
47 63 3
47 64 3
47 65 5
47 66 3
47 67 5
47 68 4
47 69 4
47 70 1
47 71 4
47 72 3
47 73 5
47 74 2
47 75 2
47 76 1
47 77 4
47 78 5
47 79 5
47 80 5
47 81 4
47 82 2
47 83 3
47 84 1
47 85 1
47 86 4
47 87 2
47 88 4
47 89 1
47 90 3
47 91 2
47 92 2
47 93 3
47 94 2
47 95 2
47 96 2
47 97 2
47 98 3
47 99 2
47 100 2
48 49 3
48 50 3
48 51 3
48 52 1
48 53 4
48 54 2
48 55 3
48 56 1
48 57 4
48 58 5
48 59 2
48 60 2
48 61 2
48 62 4
48 63 3
48 64 2
48 65 1
48 66 1
48 67 1
48 68 2
48 69 5
48 70 3
48 71 3
48 72 3
48 73 1
48 74 1
48 75 3
48 76 4
48 77 4
48 78 2
48 79 1
48 80 4
48 81 1
48 82 4
48 83 1
48 84 2
48 85 1
48 86 5
48 87 3
48 88 3
48 89 5
48 90 3
48 91 5
48 92 1
48 93 5
48 94 3
48 95 1
48 96 2
48 97 1
48 98 4
48 99 1
48 100 2
49 50 5
49 51 3
49 52 2
49 53 5
49 54 2
49 55 2
49 56 3
49 57 2
49 58 3
49 59 4
49 60 5
49 61 2
49 62 2
49 63 3
49 64 5
49 65 5
49 66 4
49 67 1
49 68 3
49 69 1
49 70 3
49 71 1
49 72 2
49 73 3
49 74 3
49 75 1
49 76 5
49 77 4
49 78 5
49 79 2
49 80 3
49 81 1
49 82 4
49 83 4
49 84 1
49 85 5
49 86 4
49 87 2
49 88 5
49 89 2
49 90 4
49 91 4
49 92 3
49 93 5
49 94 3
49 95 4
49 96 5
49 97 5
49 98 3
49 99 2
49 100 3
50 51 5
50 52 1
50 53 1
50 54 1
50 55 2
50 56 5
50 57 4
50 58 5
50 59 1
50 60 2
50 61 5
50 62 3
50 63 3
50 64 4
50 65 2
50 66 3
50 67 1
50 68 2
50 69 4
50 70 3
50 71 4
50 72 2
50 73 4
50 74 5
50 75 5
50 76 4
50 77 2
50 78 3
50 79 4
50 80 1
50 81 3
50 82 4
50 83 4
50 84 5
50 85 5
50 86 3
50 87 5
50 88 5
50 89 5
50 90 1
50 91 5
50 92 2
50 93 3
50 94 2
50 95 4
50 96 2
50 97 5
50 98 3
50 99 3
50 100 2
51 52 5
51 53 3
51 54 1
51 55 4
51 56 1
51 57 3
51 58 5
51 59 1
51 60 4
51 61 2
51 62 4
51 63 1
51 64 3
51 65 5
51 66 4
51 67 5
51 68 4
51 69 5
51 70 1
51 71 4
51 72 1
51 73 3
51 74 1
51 75 4
51 76 2
51 77 1
51 78 5
51 79 1
51 80 3
51 81 1
51 82 1
51 83 3
51 84 5
51 85 3
51 86 1
51 87 5
51 88 5
51 89 3
51 90 1
51 91 1
51 92 1
51 93 3
51 94 1
51 95 1
51 96 3
51 97 5
51 98 5
51 99 1
51 100 1
52 53 1
52 54 4
52 55 3
52 56 4
52 57 2
52 58 2
52 59 1
52 60 5
52 61 2
52 62 1
52 63 1
52 64 2
52 65 5
52 66 2
52 67 4
52 68 2
52 69 2
52 70 5
52 71 5
52 72 5
52 73 1
52 74 5
52 75 3
52 76 5
52 77 3
52 78 1
52 79 2
52 80 3
52 81 5
52 82 1
52 83 3
52 84 1
52 85 1
52 86 4
52 87 3
52 88 4
52 89 1
52 90 5
52 91 3
52 92 5
52 93 3
52 94 5
52 95 1
52 96 4
52 97 5
52 98 2
52 99 1
52 100 5
53 54 3
53 55 5
53 56 3
53 57 3
53 58 1
53 59 3
53 60 2
53 61 2
53 62 4
53 63 3
53 64 2
53 65 1
53 66 2
53 67 4
53 68 5
53 69 5
53 70 5
53 71 2
53 72 5
53 73 3
53 74 5
53 75 1
53 76 3
53 77 4
53 78 5
53 79 1
53 80 3
53 81 3
53 82 5
53 83 4
53 84 3
53 85 5
53 86 5
53 87 3
53 88 5
53 89 4
53 90 2
53 91 2
53 92 2
53 93 4
53 94 2
53 95 5
53 96 4
53 97 5
53 98 3
53 99 3
53 100 4
54 55 2
54 56 3
54 57 2
54 58 1
54 59 4
54 60 3
54 61 5
54 62 1
54 63 1
54 64 2
54 65 3
54 66 4
54 67 1
54 68 5
54 69 1
54 70 5
54 71 4
54 72 3
54 73 3
54 74 4
54 75 5
54 76 3
54 77 1
54 78 4
54 79 4
54 80 5
54 81 5
54 82 2
54 83 3
54 84 1
54 85 4
54 86 1
54 87 5
54 88 2
54 89 2
54 90 3
54 91 3
54 92 3
54 93 4
54 94 5
54 95 1
54 96 1
54 97 4
54 98 3
54 99 1
54 100 2
55 56 2
55 57 2
55 58 4
55 59 2
55 60 3
55 61 4
55 62 4
55 63 5
55 64 1
55 65 5
55 66 5
55 67 2
55 68 5
55 69 4
55 70 2
55 71 4
55 72 4
55 73 1
55 74 5
55 75 3
55 76 3
55 77 1
55 78 4
55 79 5
55 80 1
55 81 3
55 82 3
55 83 2
55 84 5
55 85 2
55 86 2
55 87 4
55 88 4
55 89 4
55 90 3
55 91 3
55 92 4
55 93 2
55 94 5
55 95 4
55 96 5
55 97 4
55 98 3
55 99 1
55 100 5
56 57 5
56 58 5
56 59 4
56 60 2
56 61 4
56 62 1
56 63 2
56 64 1
56 65 5
56 66 4
56 67 2
56 68 1
56 69 1
56 70 4
56 71 2
56 72 4
56 73 3
56 74 3
56 75 3
56 76 3
56 77 5
56 78 5
56 79 4
56 80 5
56 81 5
56 82 4
56 83 5
56 84 3
56 85 2
56 86 5
56 87 5
56 88 1
56 89 1
56 90 5
56 91 5
56 92 4
56 93 3
56 94 1
56 95 5
56 96 3
56 97 2
56 98 3
56 99 2
56 100 5
57 58 2
57 59 4
57 60 1
57 61 2
57 62 3
57 63 1
57 64 4
57 65 1
57 66 2
57 67 1
57 68 2
57 69 3
57 70 2
57 71 1
57 72 3
57 73 3
57 74 1
57 75 2
57 76 1
57 77 5
57 78 4
57 79 2
57 80 4
57 81 4
57 82 4
57 83 2
57 84 1
57 85 1
57 86 4
57 87 5
57 88 1
57 89 3
57 90 4
57 91 1
57 92 2
57 93 5
57 94 3
57 95 3
57 96 3
57 97 3
57 98 2
57 99 2
57 100 5
58 59 3
58 60 4
58 61 5
58 62 5
58 63 2
58 64 4
58 65 1
58 66 2
58 67 4
58 68 4
58 69 5
58 70 5
58 71 1
58 72 1
58 73 2
58 74 5
58 75 3
58 76 1
58 77 2
58 78 1
58 79 5
58 80 4
58 81 5
58 82 5
58 83 2
58 84 3
58 85 3
58 86 5
58 87 3
58 88 2
58 89 1
58 90 5
58 91 4
58 92 3
58 93 3
58 94 2
58 95 5
58 96 2
58 97 4
58 98 2
58 99 1
58 100 3
59 60 3
59 61 4
59 62 2
59 63 1
59 64 4
59 65 4
59 66 4
59 67 3
59 68 4
59 69 4
59 70 2
59 71 1
59 72 3
59 73 5
59 74 5
59 75 5
59 76 1
59 77 3
59 78 4
59 79 2
59 80 4
59 81 5
59 82 2
59 83 5
59 84 1
59 85 1
59 86 5
59 87 4
59 88 3
59 89 2
59 90 1
59 91 2
59 92 4
59 93 3
59 94 4
59 95 1
59 96 1
59 97 2
59 98 5
59 99 5
59 100 3
60 61 4
60 62 3
60 63 5
60 64 2
60 65 2
60 66 1
60 67 4
60 68 4
60 69 4
60 70 1
60 71 3
60 72 2
60 73 3
60 74 3
60 75 3
60 76 5
60 77 3
60 78 5
60 79 4
60 80 3
60 81 2
60 82 1
60 83 5
60 84 1
60 85 2
60 86 2
60 87 4
60 88 3
60 89 2
60 90 5
60 91 1
60 92 4
60 93 2
60 94 4
60 95 1
60 96 5
60 97 4
60 98 5
60 99 5
60 100 5
61 62 1
61 63 4
61 64 1
61 65 1
61 66 1
61 67 5
61 68 2
61 69 3
61 70 2
61 71 2
61 72 4
61 73 3
61 74 5
61 75 1
61 76 3
61 77 2
61 78 2
61 79 4
61 80 4
61 81 3
61 82 5
61 83 2
61 84 1
61 85 4
61 86 1
61 87 4
61 88 1
61 89 1
61 90 3
61 91 3
61 92 4
61 93 3
61 94 4
61 95 1
61 96 5
61 97 5
61 98 2
61 99 4
61 100 2
62 63 5
62 64 1
62 65 2
62 66 4
62 67 3
62 68 1
62 69 4
62 70 1
62 71 1
62 72 5
62 73 1
62 74 5
62 75 4
62 76 5
62 77 5
62 78 2
62 79 3
62 80 2
62 81 5
62 82 1
62 83 1
62 84 3
62 85 2
62 86 5
62 87 3
62 88 4
62 89 5
62 90 4
62 91 5
62 92 4
62 93 4
62 94 1
62 95 5
62 96 1
62 97 1
62 98 2
62 99 5
62 100 5
63 64 4
63 65 3
63 66 3
63 67 5
63 68 2
63 69 1
63 70 5
63 71 5
63 72 3
63 73 1
63 74 5
63 75 5
63 76 3
63 77 5
63 78 4
63 79 3
63 80 5
63 81 1
63 82 2
63 83 1
63 84 1
63 85 4
63 86 3
63 87 4
63 88 4
63 89 2
63 90 1
63 91 1
63 92 5
63 93 5
63 94 2
63 95 1
63 96 1
63 97 4
63 98 3
63 99 2
63 100 3
64 65 5
64 66 5
64 67 4
64 68 3
64 69 5
64 70 4
64 71 2
64 72 5
64 73 4
64 74 2
64 75 5
64 76 1
64 77 2
64 78 5
64 79 5
64 80 3
64 81 4
64 82 5
64 83 5
64 84 5
64 85 1
64 86 5
64 87 5
64 88 2
64 89 2
64 90 2
64 91 1
64 92 3
64 93 1
64 94 2
64 95 3
64 96 4
64 97 5
64 98 1
64 99 2
64 100 1
65 66 5
65 67 5
65 68 3
65 69 4
65 70 5
65 71 1
65 72 1
65 73 1
65 74 4
65 75 3
65 76 5
65 77 3
65 78 3
65 79 1
65 80 2
65 81 4
65 82 2
65 83 5
65 84 2
65 85 1
65 86 5
65 87 2
65 88 5
65 89 2
65 90 5
65 91 4
65 92 2
65 93 4
65 94 5
65 95 1
65 96 5
65 97 3
65 98 4
65 99 2
65 100 5
66 67 1
66 68 3
66 69 1
66 70 2
66 71 5
66 72 1
66 73 1
66 74 4
66 75 5
66 76 3
66 77 2
66 78 3
66 79 2
66 80 1
66 81 5
66 82 5
66 83 5
66 84 5
66 85 5
66 86 2
66 87 5
66 88 2
66 89 3
66 90 4
66 91 3
66 92 5
66 93 1
66 94 4
66 95 4
66 96 1
66 97 3
66 98 1
66 99 1
66 100 2
67 68 4
67 69 4
67 70 4
67 71 1
67 72 1
67 73 4
67 74 4
67 75 1
67 76 1
67 77 3
67 78 1
67 79 2
67 80 2
67 81 4
67 82 1
67 83 2
67 84 1
67 85 3
67 86 3
67 87 5
67 88 4
67 89 2
67 90 2
67 91 4
67 92 1
67 93 5
67 94 3
67 95 3
67 96 1
67 97 4
67 98 3
67 99 4
67 100 1
68 69 1
68 70 5
68 71 3
68 72 2
68 73 3
68 74 4
68 75 3
68 76 4
68 77 5
68 78 3
68 79 4
68 80 1
68 81 2
68 82 4
68 83 5
68 84 1
68 85 3
68 86 5
68 87 5
68 88 1
68 89 1
68 90 4
68 91 4
68 92 5
68 93 5
68 94 1
68 95 1
68 96 4
68 97 3
68 98 3
68 99 3
68 100 2
69 70 2
69 71 5
69 72 2
69 73 2
69 74 1
69 75 3
69 76 4
69 77 2
69 78 5
69 79 5
69 80 4
69 81 1
69 82 4
69 83 1
69 84 4
69 85 1
69 86 2
69 87 4
69 88 5
69 89 5
69 90 4
69 91 2
69 92 5
69 93 3
69 94 5
69 95 1
69 96 2
69 97 1
69 98 5
69 99 3
69 100 4
70 71 4
70 72 4
70 73 1
70 74 1
70 75 4
70 76 4
70 77 2
70 78 1
70 79 3
70 80 1
70 81 3
70 82 1
70 83 2
70 84 3
70 85 3
70 86 5
70 87 2
70 88 3
70 89 2
70 90 3
70 91 1
70 92 5
70 93 1
70 94 2
70 95 1
70 96 5
70 97 5
70 98 3
70 99 2
70 100 4
71 72 4
71 73 1
71 74 4
71 75 1
71 76 3
71 77 2
71 78 3
71 79 2
71 80 3
71 81 4
71 82 4
71 83 1
71 84 4
71 85 2
71 86 4
71 87 5
71 88 5
71 89 3
71 90 1
71 91 2
71 92 3
71 93 3
71 94 2
71 95 3
71 96 1
71 97 3
71 98 1
71 99 5
71 100 5
72 73 5
72 74 3
72 75 1
72 76 5
72 77 5
72 78 4
72 79 2
72 80 3
72 81 1
72 82 4
72 83 2
72 84 3
72 85 2
72 86 3
72 87 5
72 88 4
72 89 2
72 90 2
72 91 2
72 92 4
72 93 3
72 94 5
72 95 5
72 96 4
72 97 5
72 98 1
72 99 1
72 100 2
73 74 1
73 75 3
73 76 4
73 77 2
73 78 4
73 79 4
73 80 5
73 81 2
73 82 4
73 83 5
73 84 3
73 85 3
73 86 5
73 87 3
73 88 3
73 89 3
73 90 2
73 91 5
73 92 1
73 93 2
73 94 5
73 95 2
73 96 4
73 97 2
73 98 4
73 99 4
73 100 5
74 75 1
74 76 4
74 77 5
74 78 4
74 79 3
74 80 3
74 81 4
74 82 1
74 83 1
74 84 4
74 85 3
74 86 5
74 87 2
74 88 2
74 89 4
74 90 4
74 91 3
74 92 2
74 93 5
74 94 1
74 95 5
74 96 5
74 97 1
74 98 4
74 99 5
74 100 4
75 76 3
75 77 2
75 78 3
75 79 3
75 80 1
75 81 4
75 82 2
75 83 3
75 84 3
75 85 2
75 86 4
75 87 5
75 88 2
75 89 3
75 90 3
75 91 2
75 92 1
75 93 1
75 94 5
75 95 1
75 96 1
75 97 4
75 98 1
75 99 2
75 100 2
76 77 4
76 78 5
76 79 4
76 80 1
76 81 3
76 82 2
76 83 4
76 84 5
76 85 2
76 86 2
76 87 2
76 88 2
76 89 3
76 90 4
76 91 3
76 92 2
76 93 5
76 94 5
76 95 4
76 96 1
76 97 2
76 98 1
76 99 3
76 100 4
77 78 2
77 79 3
77 80 2
77 81 2
77 82 4
77 83 3
77 84 5
77 85 2
77 86 4
77 87 4
77 88 2
77 89 4
77 90 4
77 91 3
77 92 5
77 93 3
77 94 5
77 95 3
77 96 5
77 97 2
77 98 5
77 99 3
77 100 3
78 79 5
78 80 5
78 81 2
78 82 1
78 83 3
78 84 5
78 85 1
78 86 2
78 87 2
78 88 5
78 89 1
78 90 2
78 91 1
78 92 3
78 93 2
78 94 2
78 95 4
78 96 3
78 97 1
78 98 5
78 99 4
78 100 1
79 80 5
79 81 1
79 82 2
79 83 3
79 84 2
79 85 3
79 86 1
79 87 3
79 88 3
79 89 3
79 90 5
79 91 1
79 92 2
79 93 1
79 94 3
79 95 1
79 96 1
79 97 1
79 98 2
79 99 5
79 100 5
80 81 4
80 82 4
80 83 1
80 84 5
80 85 4
80 86 3
80 87 1
80 88 2
80 89 3
80 90 2
80 91 3
80 92 5
80 93 4
80 94 1
80 95 5
80 96 3
80 97 4
80 98 2
80 99 5
80 100 1
81 82 3
81 83 1
81 84 3
81 85 5
81 86 5
81 87 4
81 88 5
81 89 1
81 90 2
81 91 5
81 92 2
81 93 4
81 94 4
81 95 2
81 96 4
81 97 3
81 98 4
81 99 3
81 100 3
82 83 1
82 84 1
82 85 2
82 86 3
82 87 2
82 88 3
82 89 4
82 90 4
82 91 5
82 92 1
82 93 4
82 94 3
82 95 5
82 96 4
82 97 5
82 98 1
82 99 5
82 100 5
83 84 1
83 85 4
83 86 3
83 87 5
83 88 5
83 89 3
83 90 1
83 91 3
83 92 1
83 93 1
83 94 3
83 95 1
83 96 5
83 97 1
83 98 3
83 99 1
83 100 4
84 85 5
84 86 3
84 87 1
84 88 4
84 89 1
84 90 1
84 91 3
84 92 5
84 93 5
84 94 3
84 95 2
84 96 1
84 97 2
84 98 3
84 99 1
84 100 5
85 86 4
85 87 3
85 88 2
85 89 4
85 90 2
85 91 1
85 92 2
85 93 3
85 94 5
85 95 4
85 96 2
85 97 3
85 98 1
85 99 5
85 100 5
86 87 2
86 88 1
86 89 2
86 90 5
86 91 1
86 92 2
86 93 3
86 94 3
86 95 2
86 96 1
86 97 5
86 98 2
86 99 1
86 100 3
87 88 4
87 89 4
87 90 5
87 91 2
87 92 3
87 93 5
87 94 3
87 95 2
87 96 2
87 97 5
87 98 3
87 99 5
87 100 4
88 89 3
88 90 3
88 91 3
88 92 2
88 93 1
88 94 5
88 95 5
88 96 2
88 97 1
88 98 5
88 99 1
88 100 1
89 90 4
89 91 4
89 92 5
89 93 2
89 94 1
89 95 4
89 96 4
89 97 1
89 98 2
89 99 1
89 100 4
90 91 1
90 92 4
90 93 3
90 94 3
90 95 4
90 96 4
90 97 1
90 98 3
90 99 3
90 100 1
91 92 5
91 93 4
91 94 5
91 95 4
91 96 5
91 97 3
91 98 3
91 99 4
91 100 3
92 93 4
92 94 1
92 95 1
92 96 5
92 97 1
92 98 2
92 99 3
92 100 3
93 94 2
93 95 5
93 96 4
93 97 1
93 98 2
93 99 2
93 100 2
94 95 5
94 96 1
94 97 2
94 98 3
94 99 3
94 100 2
95 96 3
95 97 5
95 98 2
95 99 4
95 100 4
96 97 5
96 98 5
96 99 1
96 100 2
97 98 1
97 99 4
97 100 5
98 99 3
98 100 4
99 100 3
